
%FILE DATA:	Soccer Computational Problem for MiniZinc Models	%
%AUTHOR:	Jack Wall	%
%CONTACT:  	116397063@umail.ucc.ie			%
%LAST UPDATE:	02/19/2020, 12:16:33						%
%DESCRIPTION: 	60 games played with 30 games left				%


n=10; %number of teams

%Games to play
games=[|5,10|9,1|10,6|7,5|5,6|2,1|1,7|4,7|10,3|6,9|1,8|4,2|5,2|7,1|4,10|7,10|9,8|3,7|3,8|1,6|4,3|6,10|2,6|10,2|7,8|2,4|10,1|3,9|8,4|4,1|];

%Initial points
iPoints=[13,13,15,16,24,22,17,10,14,18];

%POSITION CONSTRAINTS
% [|teamID, operator, position|...]
% operators index:
%  1 for =  operator
%  2 for >  operator
%  3 for >= operator
%  4 for <  operator
%  5 for <= operator
positionConstraints=[|6,1,1|5,2,1|1,4,4|4,2,3|10,5,5|];